\LP file generated from the problem `SubProb' by the
\Xpress Builder Component Library Xpress BCL

Maximize
OBJ: I + I_1 + I_2 + I_3 + I_4 + 10 B + 10 B_1 + 10 B_2 + 10 B_3 + 10 B_4

Subject To
ConstraintInv5_1: I_4 >= 0
ConstraintBac25: B_4 + 25 alpha_4 <= 25
ConstraintInv25: I_4 - 25 alpha_4 <= 0
ConstraintBacj5: B_4 >= 0
ConstraintInv5: I_4 >= 0
ConstraintInv4_1: I_3 >= 0
ConstraintBac24: B_3 + 25 alpha_3 <= 25
ConstraintInv24: I_3 - 25 alpha_3 <= 0
ConstraintBacj4: B_3 >= 0
ConstraintInv4: I_3 >= 0
ConstraintInv3_1: I_2 >= 0
ConstraintBac23: B_2 + 25 alpha_2 <= 25
ConstraintInv23: I_2 - 25 alpha_2 <= 0
ConstraintBacj3: B_2 >= 0
ConstraintInv3: I_2 >= 0
ConstraintInv2_1: I_1 >= 0
ConstraintBac22: B_1 + 25 alpha_1 <= 25
ConstraintInv22: I_1 - 25 alpha_1 <= 0
ConstraintBacj2: B_1 >= 0
ConstraintInv2: I_1 >= 0
ConstraintInv1_1: I >= 0
ConstraintBac21: B + 25 alpha <= 25
ConstraintInv21: I - 25 alpha <= 0
ConstraintBacj1: B >= 0
ConstraintInv1: I >= 0
Constraintdelta6552: delta_49 >= 0
Constraintdelta5552: delta_49 <= 1
Constraintdelta6551: delta_48 >= 0
Constraintdelta5551: delta_48 <= 1
Constraintdelta6452: delta_39 >= 0
Constraintdelta5452: delta_39 <= 1
Constraintdelta3452: delta_39 = 1
Constraintdelta6451: delta_38 >= 0
Constraintdelta5451: delta_38 <= 1
Constraintdelta3451: delta_38 = 1
Constraintdelta6352: delta_29 >= 0
Constraintdelta5352: delta_29 <= 1
Constraintdelta3352: delta_29 = 1
Constraintdelta6351: delta_28 >= 0
Constraintdelta5351: delta_28 <= 1
Constraintdelta3351: delta_28 = 1
Constraintdelta6252: delta_19 >= 0
Constraintdelta5252: delta_19 <= 1
Constraintdelta3252: delta_19 = 1
Constraintdelta6251: delta_18 >= 0
Constraintdelta5251: delta_18 <= 1
Constraintdelta3251: delta_18 = 1
Constraintdelta6152: delta_9 >= 0
Constraintdelta5152: delta_9 <= 1
Constraintdelta3152: delta_9 = 1
Constraintdelta6151: delta_8 >= 0
Constraintdelta5151: delta_8 <= 1
Constraintdelta3151: delta_8 = 1
Constraintdelta6542: delta_47 >= 0
Constraintdelta5542: delta_47 <= 1
Constraintdelta4542: delta_47 = 0
Constraintdelta6541: delta_46 >= 0
Constraintdelta5541: delta_46 <= 1
Constraintdelta4541: delta_46 = 0
Constraintdelta6442: delta_37 >= 0
Constraintdelta5442: delta_37 <= 1
Constraintdelta6441: delta_36 >= 0
Constraintdelta5441: delta_36 <= 1
Constraintdelta6342: delta_27 >= 0
Constraintdelta5342: delta_27 <= 1
Constraintdelta3342: delta_27 = 1
Constraintdelta6341: delta_26 >= 0
Constraintdelta5341: delta_26 <= 1
Constraintdelta3341: delta_26 = 1
Constraintdelta6242: delta_17 >= 0
Constraintdelta5242: delta_17 <= 1
Constraintdelta3242: delta_17 = 1
Constraintdelta6241: delta_16 >= 0
Constraintdelta5241: delta_16 <= 1
Constraintdelta3241: delta_16 = 1
Constraintdelta6142: delta_7 >= 0
Constraintdelta5142: delta_7 <= 1
Constraintdelta3142: delta_7 = 1
Constraintdelta6141: delta_6 >= 0
Constraintdelta5141: delta_6 <= 1
Constraintdelta3141: delta_6 = 1
Constraintdelta6532: delta_45 >= 0
Constraintdelta5532: delta_45 <= 1
Constraintdelta4532: delta_45 = 0
Constraintdelta6531: delta_44 >= 0
Constraintdelta5531: delta_44 <= 1
Constraintdelta4531: delta_44 = 0
Constraintdelta6432: delta_35 >= 0
Constraintdelta5432: delta_35 <= 1
Constraintdelta4432: delta_35 = 0
Constraintdelta6431: delta_34 >= 0
Constraintdelta5431: delta_34 <= 1
Constraintdelta4431: delta_34 = 0
Constraintdelta6332: delta_25 >= 0
Constraintdelta5332: delta_25 <= 1
Constraintdelta6331: delta_24 >= 0
Constraintdelta5331: delta_24 <= 1
Constraintdelta6232: delta_15 >= 0
Constraintdelta5232: delta_15 <= 1
Constraintdelta3232: delta_15 = 1
Constraintdelta6231: delta_14 >= 0
Constraintdelta5231: delta_14 <= 1
Constraintdelta3231: delta_14 = 1
Constraintdelta6132: delta_5 >= 0
Constraintdelta5132: delta_5 <= 1
Constraintdelta3132: delta_5 = 1
Constraintdelta6131: delta_4 >= 0
Constraintdelta5131: delta_4 <= 1
Constraintdelta3131: delta_4 = 1
Constraintdelta6522: delta_43 >= 0
Constraintdelta5522: delta_43 <= 1
Constraintdelta4522: delta_43 = 0
Constraintdelta6521: delta_42 >= 0
Constraintdelta5521: delta_42 <= 1
Constraintdelta4521: delta_42 = 0
Constraintdelta6422: delta_33 >= 0
Constraintdelta5422: delta_33 <= 1
Constraintdelta4422: delta_33 = 0
Constraintdelta6421: delta_32 >= 0
Constraintdelta5421: delta_32 <= 1
Constraintdelta4421: delta_32 = 0
Constraintdelta6322: delta_23 >= 0
Constraintdelta5322: delta_23 <= 1
Constraintdelta4322: delta_23 = 0
Constraintdelta6321: delta_22 >= 0
Constraintdelta5321: delta_22 <= 1
Constraintdelta4321: delta_22 = 0
Constraintdelta6222: delta_13 >= 0
Constraintdelta5222: delta_13 <= 1
Constraintdelta6221: delta_12 >= 0
Constraintdelta5221: delta_12 <= 1
Constraintdelta6122: delta_3 >= 0
Constraintdelta5122: delta_3 <= 1
Constraintdelta3122: delta_3 = 1
Constraintdelta6121: delta_2 >= 0
Constraintdelta5121: delta_2 <= 1
Constraintdelta3121: delta_2 = 1
Constraintdelta6512: delta_41 >= 0
Constraintdelta5512: delta_41 <= 1
Constraintdelta4512: delta_41 = 0
Constraintdelta6511: delta_40 >= 0
Constraintdelta5511: delta_40 <= 1
Constraintdelta4511: delta_40 = 0
Constraintdelta6412: delta_31 >= 0
Constraintdelta5412: delta_31 <= 1
Constraintdelta4412: delta_31 = 0
Constraintdelta6411: delta_30 >= 0
Constraintdelta5411: delta_30 <= 1
Constraintdelta4411: delta_30 = 0
Constraintdelta6312: delta_21 >= 0
Constraintdelta5312: delta_21 <= 1
Constraintdelta4312: delta_21 = 0
Constraintdelta6311: delta_20 >= 0
Constraintdelta5311: delta_20 <= 1
Constraintdelta4311: delta_20 = 0
Constraintdelta6212: delta_11 >= 0
Constraintdelta5212: delta_11 <= 1
Constraintdelta4212: delta_11 = 0
Constraintdelta6211: delta_10 >= 0
Constraintdelta5211: delta_10 <= 1
Constraintdelta4211: delta_10 = 0
Constraintdelta6112: delta_1 >= 0
Constraintdelta5112: delta_1 <= 1
Constraintdelta6111: delta >= 0
Constraintdelta5111: delta <= 1
Constraintdeltat4: delta_36 + delta_37 >= -1
Constraintdeltat3: delta_24 + delta_25 >= -1
Constraintdeltat2: delta_12 + delta_13 >= -1
Constraintdeltat1: delta + delta_1 >= -1
Constraintdelta1452: delta_47 - delta_49 <= 0
Constraintdelta1451: delta_46 - delta_48 <= 0
Constraintdelta1442: delta_37 - delta_39 <= 0
Constraintdelta1441: delta_36 - delta_38 <= 0
Constraintdelta1432: delta_27 - delta_29 <= 0
Constraintdelta1431: delta_26 - delta_28 <= 0
Constraintdelta1422: delta_17 - delta_19 <= 0
Constraintdelta1421: delta_16 - delta_18 <= 0
Constraintdelta1412: delta_7 - delta_9 <= 0
Constraintdelta1411: delta_6 - delta_8 <= 0
Constraintdelta1352: delta_45 - delta_47 <= 0
Constraintdelta1351: delta_44 - delta_46 <= 0
Constraintdelta1342: delta_35 - delta_37 <= 0
Constraintdelta1341: delta_34 - delta_36 <= 0
Constraintdelta1332: delta_25 - delta_27 <= 0
Constraintdelta1331: delta_24 - delta_26 <= 0
Constraintdelta1322: delta_15 - delta_17 <= 0
Constraintdelta1321: delta_14 - delta_16 <= 0
Constraintdelta1312: delta_5 - delta_7 <= 0
Constraintdelta1311: delta_4 - delta_6 <= 0
Constraintdelta1252: delta_43 - delta_45 <= 0
Constraintdelta1251: delta_42 - delta_44 <= 0
Constraintdelta1242: delta_33 - delta_35 <= 0
Constraintdelta1241: delta_32 - delta_34 <= 0
Constraintdelta1232: delta_23 - delta_25 <= 0
Constraintdelta1231: delta_22 - delta_24 <= 0
Constraintdelta1222: delta_13 - delta_15 <= 0
Constraintdelta1221: delta_12 - delta_14 <= 0
Constraintdelta1212: delta_3 - delta_5 <= 0
Constraintdelta1211: delta_2 - delta_4 <= 0
Constraintdelta1152: delta_41 - delta_43 <= 0
Constraintdelta1151: delta_40 - delta_42 <= 0
Constraintdelta1142: delta_31 - delta_33 <= 0
Constraintdelta1141: delta_30 - delta_32 <= 0
Constraintdelta1132: delta_21 - delta_23 <= 0
Constraintdelta1131: delta_20 - delta_22 <= 0
Constraintdelta1122: delta_11 - delta_13 <= 0
Constraintdelta1121: delta_10 - delta_12 <= 0
Constraintdelta1112: delta_1 - delta_3 <= 0
Constraintdelta1111: delta - delta_2 <= 0
ConstraintInventoryBack5: - 19.5 delta_9 - 5.5 delta_38 + I_4 - B_4 = -25
ConstraintInventoryBack4: - 19.5 delta_7 - 5.5 delta_36 + I_3 - B_3 = -20
ConstraintInventoryBack3: - 19.5 delta_5 + I_2 - B_2 = -15
ConstraintInventoryBack2: - 19.5 delta_3 + I_1 - B_1 = -10
ConstraintInventoryBack1: - 19.5 delta_1 + I - B = -5

Bounds

Binaries
alpha alpha_1 alpha_2 alpha_3 alpha_4 

End
